n_res = 4;
rc = [ 14, 18, 16, 19 ];
n_tasks = 15;
d = [ 4, 10, 7, 6, 125, 100, 125, 25, 225, 100, 175, 6, 8, 5, 1 ];
rr = [| 0, 0, 0, 0, 3, 0, 0, 0, 2, 1, 9, 0, 0, 0, 7
      | 1, 0, 7, 0, 0, 0, 0, 0, 0, 0, 0, 6, 0, 2, 0
      | 0, 0, 0, 0, 0, 0, 6, 5, 0, 0, 0, 0, 0, 0, 0
      | 0, 3, 0, 8, 0, 6, 0, 0, 0, 0, 0, 0, 6, 0, 0 |];
suc = [ { 10, 11, 12 },
       { 6, 13 },
       { 4, 7 },
       { 5, 9, 15 },
       { 12, 14 },
       { 7, 11 },
       { 8, 14 },
       {  },
       { 12, 13 },
       { 13 },
       { 14 },
       {  },
       {  },
       {  },
       {  } ];
